NAME : pr20.tsp
COMMENT : 20-city problem
TYPE : TSP 
DIMENSION : 20
EDGE_WEIGHT_TYPE : EUC_2D
NODE_COORD_SECTION 
1  4.891700e+04 9.428300e+04 
2  9.600000e+02 4.931000e+03 
3  8.239000e+04 3.627300e+04 
4  7.849700e+04 4.954600e+04 
5  8.785000e+04 2.455500e+04 
6  1.672900e+04 6.137100e+04 
7  7.631000e+03 8.964800e+04 
8  1.421700e+04 4.956000e+03 
9  8.515300e+04 8.253000e+04 
10 3.246800e+04 7.562100e+04 
11 8.385300e+04 1.042000e+03 
12 8.073800e+04 2.995100e+04 
13 5.737000e+03 2.764200e+04 
14 4.634000e+04 2.223100e+04 
15 5.735500e+04 5.757700e+04 
16 6.844500e+04 6.139200e+04 
17 4.967300e+04 1.008300e+04 
18 3.673200e+04 3.774100e+04 
19 4.846200e+04 1.732800e+04 
20 3.660000e+03 3.419400e+04 
EOF 
